0 0 0 0
0 1 0 0
0 2 2 0
0 3 2 0
0 4 1 8
0 5 1 5
0 6 2 5
0 7 1 8
0 8 1 16
0 9 1 13
0 10 2 5
0 11 2 8
0 12 2 14
0 13 2 10
0 14 1 10
0 15 2 17
0 16 2 19
0 17 0 26
0 18 2 21
0 19 1 26
0 20 1 20
0 21 2 27
0 22 2 14
0 23 2 27
0 24 2 33
0 25 2 27
0 26 2 28
0 27 2 34
0 28 0 39
0 29 2 31
0 30 0 39
0 31 0 43
